decision_x1=[0,2];
decision_x2=[0,2];
decision_x3=[0,2];
decision_x4=[0,2];
decision_x5=[0,2];
decision_x6=[0,2];
decision_x7=[0,2];
decision_x8=[0,2];
decision_x9=[0,2];
decision_x10=[0,2];
decision_x11=[0,2];
decision_x12=[0,2];
random_y1=[0,2];
random_y2=[0,2];
random_y3=[0,2];
random_y4=[0,2];
random_y5=[0,2];
random_y6=[0,2];
random_y7=[0,2];
random_y8=[0,2];
random_y9=[0,2];
random_y10=[0,2];
random_y11=[0,2];
random_y12=[0,2];
constraint_x2_x1=[
0,0,79|
0,1,52|
0,2,25|
1,0,75|
1,1,70|
1,2,30|
2,0,55|
2,1,40|
2,2,61|
];
constraint_x3_x1=[
0,0,91|
0,1,37|
0,2,19|
1,0,5.6|
1,1,22|
1,2,18|
2,0,55|
2,1,83|
2,2,22|
];
constraint_x5_x1=[
0,0,43|
0,1,69|
0,2,42|
1,0,67|
1,1,77|
1,2,98|
2,0,6.7|
2,1,35|
2,2,95|
];
constraint_x5_x2=[
0,0,27|
0,1,55|
0,2,70|
1,0,91|
1,1,39|
1,2,12|
2,0,99|
2,1,54|
2,2,73|
];
constraint_x5_x3=[
0,0,30|
0,1,13|
0,2,57|
1,0,73|
1,1,37|
1,2,97|
2,0,94|
2,1,7.9|
2,2,93|
];
constraint_x5_x4=[
0,0,19|
0,1,7.9|
0,2,77|
1,0,2.5|
1,1,59|
1,2,58|
2,0,5.6|
2,1,44|
2,2,79|
];
constraint_x6_x3=[
0,0,96|
0,1,99|
0,2,48|
1,0,95|
1,1,1e+02|
1,2,64|
2,0,96|
2,1,24|
2,2,46|
];
constraint_x6_x4=[
0,0,18|
0,1,91|
0,2,5.2|
1,0,26|
1,1,23|
1,2,71|
2,0,89|
2,1,91|
2,2,7.3|
];
constraint_x6_x5=[
0,0,52|
0,1,76|
0,2,18|
1,0,38|
1,1,90|
1,2,86|
2,0,48|
2,1,78|
2,2,70|
];
constraint_x7_x2=[
0,0,79|
0,1,60|
0,2,6.6|
1,0,28|
1,1,76|
1,2,21|
2,0,2|
2,1,85|
2,2,50|
];
constraint_x7_x3=[
0,0,75|
0,1,45|
0,2,48|
1,0,74|
1,1,31|
1,2,74|
2,0,12|
2,1,11|
2,2,44|
];
constraint_x8_x2=[
0,0,18|
0,1,40|
0,2,99|
1,0,17|
1,1,47|
1,2,41|
2,0,10|
2,1,63|
2,2,1e+02|
];
constraint_x8_x5=[
0,0,84|
0,1,31|
0,2,65|
1,0,44|
1,1,99|
1,2,44|
2,0,14|
2,1,77|
2,2,22|
];
constraint_x8_x6=[
0,0,75|
0,1,71|
0,2,44|
1,0,38|
1,1,15|
1,2,24|
2,0,17|
2,1,57|
2,2,29|
];
constraint_x8_x7=[
0,0,59|
0,1,5.6|
0,2,0.82|
1,0,94|
1,1,88|
1,2,1.8|
2,0,95|
2,1,34|
2,2,90|
];
constraint_x9_x1=[
0,0,91|
0,1,42|
0,2,18|
1,0,82|
1,1,87|
1,2,46|
2,0,19|
2,1,41|
2,2,73|
];
constraint_x9_x5=[
0,0,2.5|
0,1,4.1|
0,2,54|
1,0,13|
1,1,13|
1,2,74|
2,0,70|
2,1,8.3|
2,2,19|
];
constraint_x9_x6=[
0,0,95|
0,1,79|
0,2,38|
1,0,25|
1,1,43|
1,2,72|
2,0,99|
2,1,78|
2,2,3.7|
];
constraint_x9_x7=[
0,0,17|
0,1,89|
0,2,75|
1,0,51|
1,1,38|
1,2,33|
2,0,27|
2,1,72|
2,2,4.4|
];
constraint_x10_x1=[
0,0,30|
0,1,52|
0,2,78|
1,0,67|
1,1,69|
1,2,2.8|
2,0,75|
2,1,7.5|
2,2,5.8|
];
constraint_x10_x2=[
0,0,25|
0,1,1.9|
0,2,75|
1,0,91|
1,1,43|
1,2,95|
2,0,46|
2,1,0.63|
2,2,78|
];
constraint_x10_x7=[
0,0,85|
0,1,4|
0,2,82|
1,0,13|
1,1,88|
1,2,62|
2,0,19|
2,1,42|
2,2,18|
];
constraint_x10_x9=[
0,0,98|
0,1,53|
0,2,8.4|
1,0,75|
1,1,97|
1,2,76|
2,0,39|
2,1,55|
2,2,17|
];
constraint_x11_x1=[
0,0,24|
0,1,27|
0,2,82|
1,0,44|
1,1,67|
1,2,22|
2,0,6|
2,1,88|
2,2,24|
];
constraint_x11_x8=[
0,0,61|
0,1,96|
0,2,65|
1,0,18|
1,1,16|
1,2,71|
2,0,88|
2,1,38|
2,2,37|
];
constraint_x11_x9=[
0,0,24|
0,1,17|
0,2,14|
1,0,50|
1,1,26|
1,2,1e+02|
2,0,63|
2,1,2.5|
2,2,57|
];
constraint_x11_x10=[
0,0,3|
0,1,48|
0,2,33|
1,0,75|
1,1,79|
1,2,44|
2,0,38|
2,1,72|
2,2,66|
];
constraint_x12_x1=[
0,0,62|
0,1,19|
0,2,8.7|
1,0,38|
1,1,60|
1,2,29|
2,0,48|
2,1,92|
2,2,92|
];
constraint_x12_x3=[
0,0,38|
0,1,98|
0,2,40|
1,0,26|
1,1,46|
1,2,15|
2,0,60|
2,1,87|
2,2,36|
];
constraint_x12_x5=[
0,0,34|
0,1,41|
0,2,95|
1,0,12|
1,1,7.5|
1,2,82|
2,0,77|
2,1,36|
2,2,40|
];
constraint_x12_x6=[
0,0,15|
0,1,80|
0,2,64|
1,0,92|
1,1,76|
1,2,48|
2,0,22|
2,1,70|
2,2,97|
];
constraint_x12_x8=[
0,0,39|
0,1,56|
0,2,67|
1,0,8.8|
1,1,47|
1,2,3.5|
2,0,18|
2,1,43|
2,2,44|
];
constraint_x12_x10=[
0,0,70|
0,1,33|
0,2,88|
1,0,98|
1,1,39|
1,2,36|
2,0,31|
2,1,48|
2,2,51|
];
constraint_x1_y1=[
0,0,2.5|
0,1,54|
0,2,6.3|
1,0,83|
1,1,7.1|
1,2,22|
2,0,4.3|
2,1,50|
2,2,94|
];
constraint_x2_y2=[
0,0,20|
0,1,23|
0,2,55|
1,0,18|
1,1,6.3|
1,2,30|
2,0,78|
2,1,65|
2,2,52|
];
constraint_x3_y3=[
0,0,34|
0,1,5.5|
0,2,56|
1,0,51|
1,1,69|
1,2,87|
2,0,30|
2,1,58|
2,2,21|
];
constraint_x4_y4=[
0,0,33|
0,1,31|
0,2,8.4|
1,0,68|
1,1,7.2|
1,2,13|
2,0,9.1|
2,1,17|
2,2,71|
];
constraint_x5_y5=[
0,0,15|
0,1,54|
0,2,66|
1,0,67|
1,1,58|
1,2,63|
2,0,39|
2,1,34|
2,2,98|
];
constraint_x6_y6=[
0,0,94|
0,1,31|
0,2,27|
1,0,77|
1,1,56|
1,2,21|
2,0,15|
2,1,70|
2,2,16|
];
constraint_x7_y7=[
0,0,48|
0,1,30|
0,2,38|
1,0,73|
1,1,59|
1,2,30|
2,0,29|
2,1,94|
2,2,19|
];
constraint_x8_y8=[
0,0,88|
0,1,62|
0,2,31|
1,0,78|
1,1,93|
1,2,64|
2,0,16|
2,1,38|
2,2,96|
];
constraint_x9_y9=[
0,0,77|
0,1,86|
0,2,14|
1,0,53|
1,1,77|
1,2,71|
2,0,5.9|
2,1,68|
2,2,7.1|
];
constraint_x10_y10=[
0,0,82|
0,1,28|
0,2,8.5|
1,0,63|
1,1,76|
1,2,16|
2,0,34|
2,1,23|
2,2,44|
];
constraint_x11_y11=[
0,0,75|
0,1,78|
0,2,67|
1,0,63|
1,1,80|
1,2,72|
2,0,44|
2,1,77|
2,2,79|
];
constraint_x12_y12=[
0,0,35|
0,1,46|
0,2,21|
1,0,93|
1,1,15|
1,2,17|
2,0,28|
2,1,82|
2,2,14|
];
initial_distribution_y1=[0.31,0.026,0.66];
initial_distribution_y2=[0.055,0.45,0.49];
initial_distribution_y3=[0.16,0.29,0.55];
initial_distribution_y4=[0.4,0.35,0.25];
initial_distribution_y5=[0.41,0.44,0.15];
initial_distribution_y6=[0.24,0.28,0.48];
initial_distribution_y7=[0.34,0.37,0.3];
initial_distribution_y8=[0.66,0.27,0.073];
initial_distribution_y9=[0.022,0.31,0.67];
initial_distribution_y10=[0.28,0.42,0.3];
initial_distribution_y11=[0.83,0.04,0.13];
initial_distribution_y12=[0.23,0.39,0.38];
transition_y1=[
0.034,0.38,0.58|
0.57,0.19,0.25|
0.34,0.51,0.16|
];
transition_y2=[
0.21,0.37,0.42|
0.17,0.28,0.55|
0.021,0.73,0.25|
];
transition_y3=[
0.23,0.32,0.45|
0.058,0.52,0.43|
0.77,0.022,0.21|
];
transition_y4=[
0.37,0.42,0.21|
0.26,0.37,0.38|
0.31,0.1,0.59|
];
transition_y5=[
0.38,0.39,0.23|
0.37,0.2,0.43|
0.27,0.32,0.41|
];
transition_y6=[
0.72,0.21,0.076|
0.32,0.37,0.31|
0.32,0.35,0.33|
];
transition_y7=[
0.48,0.3,0.22|
0.68,0.22,0.097|
0.74,0.21,0.05|
];
transition_y8=[
0.26,0.25,0.49|
0.89,0.04,0.071|
0.049,0.039,0.91|
];
transition_y9=[
0.6,0.28,0.12|
0.28,0.29,0.43|
0.29,0.51,0.19|
];
transition_y10=[
0.34,0.21,0.46|
0.3,0.28,0.41|
0.33,0.3,0.37|
];
transition_y11=[
0.69,0.18,0.13|
0.7,0.017,0.29|
0.5,0.37,0.13|
];
transition_y12=[
0.57,0.033,0.4|
0.33,0.42,0.25|
0.33,0.38,0.29|
];
